robust/generate/spp_dkp_Lefebvre_et_al_2026/src/shortest_path_4_3.kp
45
95

[9.4 5.22 2.67 0.73 4.22 4.49 0.46 1.55 1.1 5.96]

[95 88 12 76 14 58 23 38 32 19]
